c graph colorability of graph:
c .
c
c Generated with `cnfgen`
c (C) 2012-2019 Massimo Lauria <massimo.lauria@uniroma1.it>
c https://massimolauria.net/cnfgen
c
c COMMAND LINE: cnfgen --seed 1 -o ./kcolor/kcolor.grid6.s1.k3.cnf kcolor --grid 6 6 --savegraph ./kcolor/kcolor.grid6.s1.graph --graphformat dot 3
c
p cnf 108 324
1 2 3 0
-1 -2 0
-1 -3 0
-2 -3 0
4 5 6 0
-4 -5 0
-4 -6 0
-5 -6 0
7 8 9 0
-7 -8 0
-7 -9 0
-8 -9 0
10 11 12 0
-10 -11 0
-10 -12 0
-11 -12 0
13 14 15 0
-13 -14 0
-13 -15 0
-14 -15 0
16 17 18 0
-16 -17 0
-16 -18 0
-17 -18 0
19 20 21 0
-19 -20 0
-19 -21 0
-20 -21 0
22 23 24 0
-22 -23 0
-22 -24 0
-23 -24 0
25 26 27 0
-25 -26 0
-25 -27 0
-26 -27 0
28 29 30 0
-28 -29 0
-28 -30 0
-29 -30 0
31 32 33 0
-31 -32 0
-31 -33 0
-32 -33 0
34 35 36 0
-34 -35 0
-34 -36 0
-35 -36 0
37 38 39 0
-37 -38 0
-37 -39 0
-38 -39 0
40 41 42 0
-40 -41 0
-40 -42 0
-41 -42 0
43 44 45 0
-43 -44 0
-43 -45 0
-44 -45 0
46 47 48 0
-46 -47 0
-46 -48 0
-47 -48 0
49 50 51 0
-49 -50 0
-49 -51 0
-50 -51 0
52 53 54 0
-52 -53 0
-52 -54 0
-53 -54 0
55 56 57 0
-55 -56 0
-55 -57 0
-56 -57 0
58 59 60 0
-58 -59 0
-58 -60 0
-59 -60 0
61 62 63 0
-61 -62 0
-61 -63 0
-62 -63 0
64 65 66 0
-64 -65 0
-64 -66 0
-65 -66 0
67 68 69 0
-67 -68 0
-67 -69 0
-68 -69 0
70 71 72 0
-70 -71 0
-70 -72 0
-71 -72 0
73 74 75 0
-73 -74 0
-73 -75 0
-74 -75 0
76 77 78 0
-76 -77 0
-76 -78 0
-77 -78 0
79 80 81 0
-79 -80 0
-79 -81 0
-80 -81 0
82 83 84 0
-82 -83 0
-82 -84 0
-83 -84 0
85 86 87 0
-85 -86 0
-85 -87 0
-86 -87 0
88 89 90 0
-88 -89 0
-88 -90 0
-89 -90 0
91 92 93 0
-91 -92 0
-91 -93 0
-92 -93 0
94 95 96 0
-94 -95 0
-94 -96 0
-95 -96 0
97 98 99 0
-97 -98 0
-97 -99 0
-98 -99 0
100 101 102 0
-100 -101 0
-100 -102 0
-101 -102 0
103 104 105 0
-103 -104 0
-103 -105 0
-104 -105 0
106 107 108 0
-106 -107 0
-106 -108 0
-107 -108 0
-1 -4 0
-2 -5 0
-3 -6 0
-1 -19 0
-2 -20 0
-3 -21 0
-4 -7 0
-5 -8 0
-6 -9 0
-4 -22 0
-5 -23 0
-6 -24 0
-7 -10 0
-8 -11 0
-9 -12 0
-7 -25 0
-8 -26 0
-9 -27 0
-10 -13 0
-11 -14 0
-12 -15 0
-10 -28 0
-11 -29 0
-12 -30 0
-13 -16 0
-14 -17 0
-15 -18 0
-13 -31 0
-14 -32 0
-15 -33 0
-16 -34 0
-17 -35 0
-18 -36 0
-19 -22 0
-20 -23 0
-21 -24 0
-19 -37 0
-20 -38 0
-21 -39 0
-22 -25 0
-23 -26 0
-24 -27 0
-22 -40 0
-23 -41 0
-24 -42 0
-25 -28 0
-26 -29 0
-27 -30 0
-25 -43 0
-26 -44 0
-27 -45 0
-28 -31 0
-29 -32 0
-30 -33 0
-28 -46 0
-29 -47 0
-30 -48 0
-31 -34 0
-32 -35 0
-33 -36 0
-31 -49 0
-32 -50 0
-33 -51 0
-34 -52 0
-35 -53 0
-36 -54 0
-37 -40 0
-38 -41 0
-39 -42 0
-37 -55 0
-38 -56 0
-39 -57 0
-40 -43 0
-41 -44 0
-42 -45 0
-40 -58 0
-41 -59 0
-42 -60 0
-43 -46 0
-44 -47 0
-45 -48 0
-43 -61 0
-44 -62 0
-45 -63 0
-46 -49 0
-47 -50 0
-48 -51 0
-46 -64 0
-47 -65 0
-48 -66 0
-49 -52 0
-50 -53 0
-51 -54 0
-49 -67 0
-50 -68 0
-51 -69 0
-52 -70 0
-53 -71 0
-54 -72 0
-55 -58 0
-56 -59 0
-57 -60 0
-55 -73 0
-56 -74 0
-57 -75 0
-58 -61 0
-59 -62 0
-60 -63 0
-58 -76 0
-59 -77 0
-60 -78 0
-61 -64 0
-62 -65 0
-63 -66 0
-61 -79 0
-62 -80 0
-63 -81 0
-64 -67 0
-65 -68 0
-66 -69 0
-64 -82 0
-65 -83 0
-66 -84 0
-67 -70 0
-68 -71 0
-69 -72 0
-67 -85 0
-68 -86 0
-69 -87 0
-70 -88 0
-71 -89 0
-72 -90 0
-73 -76 0
-74 -77 0
-75 -78 0
-73 -91 0
-74 -92 0
-75 -93 0
-76 -79 0
-77 -80 0
-78 -81 0
-76 -94 0
-77 -95 0
-78 -96 0
-79 -82 0
-80 -83 0
-81 -84 0
-79 -97 0
-80 -98 0
-81 -99 0
-82 -85 0
-83 -86 0
-84 -87 0
-82 -100 0
-83 -101 0
-84 -102 0
-85 -88 0
-86 -89 0
-87 -90 0
-85 -103 0
-86 -104 0
-87 -105 0
-88 -106 0
-89 -107 0
-90 -108 0
-91 -94 0
-92 -95 0
-93 -96 0
-94 -97 0
-95 -98 0
-96 -99 0
-97 -100 0
-98 -101 0
-99 -102 0
-100 -103 0
-101 -104 0
-102 -105 0
-103 -106 0
-104 -107 0
-105 -108 0
